(set-logic HORN)
(set-info :source |
  Benchmark: test_safe_2019/esop2017/various.ml
  Generated by MoCHi
|)
(set-info :status unknown)
(declare-fun |fail_33[354:0]| ( Int) Bool)
(declare-fun |sum[337:2][349:0]| ( Int  Int  Int) Bool)
(declare-fun |sum[340:2][343:0]| ( Int  Int  Int) Bool)
(declare-fun |sum[340:1]| ( Int  Int) Bool)
(declare-fun |sum[337:1]| ( Int  Int) Bool)
(declare-fun |main_20[335:0]| ( Int) Bool)
(declare-fun |mult[318:3][330:0]| ( Int  Int  Int  Int) Bool)
(declare-fun |mult[321:3][324:0]| ( Int  Int  Int  Int) Bool)
(declare-fun |mult[321:2]| ( Int  Int  Int) Bool)
(declare-fun |mult[318:2]| ( Int  Int  Int) Bool)
(assert (not (exists ((x0 Int)) (|fail_33[354:0]| x0))))
(assert (forall ((x0 Int)(x1 Int)(x2 Int)) (=> (and (|main_20[335:0]| x1) (and (|sum[337:2][349:0]| x1 x1 x2) (>= x1 (+ 1 x2)))) (|fail_33[354:0]| x0))))
(assert (forall ((x1 Int)(x0 Int)(x2 Int)(var534 Int)(var533 Int)) (=> (and (|sum[337:1]| x1 x0) (and (|sum[340:2][343:0]| x1 var533 var534) (and (= x2 (+ x0 var534)) (and (>= x0 1) (= (+ 1 var533) x0))))) (|sum[337:2][349:0]| x1 x0 x2))))
(assert (forall ((x1 Int)(x2 Int)(x0 Int)) (=> (and (|sum[340:1]| x1 x2) (and (= x0 0) (<= x2 0))) (|sum[340:2][343:0]| x1 x2 x0))))
(assert (forall ((x1 Int)(x0 Int)(x2 Int)) (=> (and (|sum[337:1]| x1 x2) (and (= (+ 1 x0) x2) (>= x2 1))) (|sum[340:1]| x1 x0))))
(assert (forall ((x1 Int)(x0 Int)) (=> (and (|main_20[335:0]| x1) (= x1 x0)) (|sum[337:1]| x1 x0))))
(assert (forall ((x0 Int)(x1 Int)) (=> (and (|mult[318:3][330:0]| x0 x0 x0 x1) (and (<= x0 x1) (>= x0 102))) (|main_20[335:0]| x0))))
(assert (forall ((x2 Int)(x1 Int)(x0 Int)(x3 Int)(var536 Int)(var535 Int)) (=> (and (|mult[318:2]| x2 x1 x0) (and (|mult[321:3][324:0]| x2 x1 var535 var536) (and (= x3 (+ x1 var536)) (and (>= x1 1) (and (>= x0 1) (= (+ 1 var535) x0)))))) (|mult[318:3][330:0]| x2 x1 x0 x3))))
(assert (forall ((x1 Int)(x2 Int)(x3 Int)(x0 Int)) (=> (and (|mult[321:2]| x1 x2 x3) (and (= x0 0) (or (<= x2 0) (<= x3 0)))) (|mult[321:3][324:0]| x1 x2 x3 x0))))
(assert (forall ((x1 Int)(x2 Int)(x0 Int)(x3 Int)) (=> (and (|mult[318:2]| x1 x2 x3) (and (= (+ 1 x0) x3) (and (>= x2 1) (>= x3 1)))) (|mult[321:2]| x1 x2 x0))))
(assert (forall ((x2 Int)(x0 Int)(x1 Int)) (=> (and (>= x2 102) (and (= x0 x2) (= x0 x1))) (|mult[318:2]| x2 x0 x1))))
(check-sat)
(get-model)
(exit)
